S = 5;
start = [|0,0,17,2,14,0,0,22,0,0,0,0,0,24,0,0,0,15,0,0,18,0,0,7,10|
24,10,23,15,0,0,0,0,0,0,0,4,0,0,2,5,22,0,0,11,0,0,0,0,0|
0,0,0,6,0,0,25,0,0,23,0,19,0,5,0,0,0,18,17,0,0,0,0,24,3|
0,0,0,21,0,0,0,15,24,0,18,0,0,17,11,0,0,0,0,0,0,0,0,0,4|
0,18,0,0,16,0,14,13,0,0,0,0,15,0,0,0,0,0,0,0,11,0,0,0,0|
16,23,0,0,0,0,0,2,1,0,0,5,13,0,0,0,0,9,0,0,0,0,25,0,7|
0,0,0,20,0,0,21,0,0,0,0,0,0,0,0,0,0,0,0,0,0,12,0,0,0|
0,0,0,0,1,0,0,0,6,0,0,0,0,0,0,0,18,4,0,21,0,0,0,0,0|
0,0,0,0,2,0,0,0,0,0,0,0,0,0,0,0,11,5,0,0,0,0,0,0,0|
0,0,0,0,0,18,4,3,0,0,0,16,0,19,17,1,25,0,0,0,22,0,0,0,23|
0,7,0,19,11,0,0,1,14,0,10,9,0,6,0,20,0,23,0,8,17,0,5,0,0|
0,0,0,0,0,23,15,0,0,0,4,0,0,0,20,0,0,17,24,0,25,0,0,9,0|
0,17,0,0,0,0,0,0,0,0,0,15,19,12,0,0,0,0,11,0,0,0,10,0,1|
18,24,0,0,15,0,0,0,3,0,0,22,0,0,5,25,0,12,0,10,0,20,0,8,14|
14,0,22,0,0,0,0,0,20,0,0,0,0,0,0,3,0,0,0,0,24,0,6,11,18|
0,0,0,0,6,0,8,25,0,0,0,18,0,0,19,0,0,0,0,0,0,10,0,0,0|
19,0,0,0,24,17,0,0,0,0,5,0,0,25,0,0,0,0,18,0,0,3,0,0,0|
0,12,2,0,7,3,0,0,0,1,0,0,22,0,14,0,0,24,0,25,0,23,15,0,0|
0,22,0,8,0,0,0,14,0,0,9,0,6,0,0,0,0,0,0,0,0,0,0,0,13|
0,0,0,0,4,0,23,10,0,0,3,0,0,15,0,11,14,0,8,7,6,0,0,0,0|
12,15,0,0,9,4,20,0,0,0,0,0,5,22,0,0,3,0,13,0,0,14,0,23,0|
0,21,25,16,0,0,0,0,0,3,0,0,0,0,9,24,0,0,0,19,0,13,11,0,0|
0,14,0,4,23,6,0,0,0,25,15,20,0,0,0,0,0,0,22,0,0,0,0,0,0|
0,0,8,0,0,0,0,24,13,0,0,0,0,0,0,0,4,16,0,0,21,25,0,0,0|
0,0,0,5,20,0,0,0,0,0,0,12,24,0,7,17,23,0,0,14,0,0,18,0,6|];